349 317
228 337
12 242
217 108
124 295
290 380
39 364
297 100
171 396
251 66
245 162
250 398
134 25
27 231
76 134
204 120
28 156
208 145
167 206
41 119
132 347
388 4
156 258
366 155
197 194
